
(set-logic ALL) 

(declare-datatype MyList ((Nil) (Cons (head Real) (tail MyList)) )) 
(declare-fun l0 () MyList) 
(declare-fun l1 () MyList) 
(declare-fun l2 () MyList) 
(declare-fun l3 () MyList) 
(declare-fun i0 () Real) 
(declare-fun i1 () Real) 
(assert (is-Nil Nil) )
(assert (and (= l1 Nil) (= l1 Nil)) )
(assert (is-Nil Nil) )
(assert (not (= l3 l1)) )
(assert (= l3 l0) )
(assert (is-Cons Nil) )
(assert (or (= l3 Nil) (is-Cons Nil) (= l1 l0) (is-Nil Nil)) )
(assert (is-Nil l2) )
(check-sat)
